71.4 36.8
23.1 89.5
54.6 12.3
88.9 41.7
15.3 77.2
92.4 18.6
33.7 64.9
47.2 95.8
10.5 28.4
76.0 53.1
39.8 86.3
62.5 09.2
84.1 45.0
27.6 71.9
51.3 34.7
68.9 22.4
14.0 98.1
42.8 57.6
79.3 63.5
31.4 80.2
59.7 29.8
86.2 50.4
20.9 74.3
65.1 38.0
48.5 91.7